p cnf 12 50 
-11 -12 1 0
-12 7 -6 0
7 -4 -11 0
5 -1 -12 0
1 2 -10 0
11 3 -4 0
-5 -6 -11 0
5 11 -4 0
-10 1 12 0
2 -9 10 0
-3 8 -11 0
11 -9 10 0
-4 12 -2 0
4 -2 -1 0
4 10 11 0
-11 -12 -6 0
-1 -2 6 0
-6 -12 -8 0
1 9 10 0
-6 12 -9 0
7 5 -8 0
-5 -8 10 0
10 -4 -5 0
-8 4 1 0
-5 10 -11 0
-6 4 2 0
-6 7 -11 0
10 -5 -7 0
4 -12 -1 0
-7 10 -11 0
2 -12 -4 0
-7 -8 -3 0
-3 -8 -10 0
-7 -1 -3 0
-6 -4 -9 0
4 -9 -10 0
10 -1 11 0
9 -6 -2 0
5 10 -4 0
11 6 -3 0
11 -1 -3 0
-3 8 10 0
11 -7 10 0
4 -10 -12 0
-8 5 10 0
2 -9 -8 0
3 11 2 0
12 4 -7 0
1 -4 -9 0
-8 -3 7 0
